c instance by G2
c solution = 0010010010101011000110000
c Known solution cost is 1248 
p cnf 25 30
w 79 34 29 29 59 29 12 26 0 57 77 56 68 35 12 82 68 27 97 94 24 24 99 69 62
4 13 18 0
1 -7 -20 0
-15 -23 1 0
12 -9 20 0
-19 25 -18 0
4 -12 10 0
-24 22 23 0
23 -2 5 0
-13 -6 -4 0
-17 22 7 0
10 3 4 0
-12 4 18 0
6 -16 21 0
21 1 4 0
-10 5 25 0
-5 23 4 0
-5 17 -6 0
-9 19 6 0
-20 4 -25 0
-19 7 17 0
-3 -6 -18 0
-14 5 -20 0
-13 -14 -18 0
23 -16 15 0
25 5 11 0
5 14 -1 0
-21 -8 19 0
16 1 22 0
19 9 25 0
7 -22 -20 0
